c SAT Generator for power-law distributed variable frequencies
c -g u -v 20 -c 91 -k 3 -p 2.750000 -b 3.200000 -f /home/schmidt/Devel/ni-kop-sat/data/ensemble/ruf20-91/ruf20-91-530 -u 1 -U 1 -s 1962599552
p cnf 20 91
-1 2 5 0
6 11 -16 0
6 14 16 0
-2 4 19 0
6 8 -20 0
6 -10 -16 0
4 5 7 0
10 -18 -20 0
4 6 -13 0
-1 -13 17 0
-11 15 -18 0
-8 17 -20 0
12 -18 -20 0
-2 -18 20 0
4 -13 -17 0
-2 8 -11 0
3 12 15 0
1 -18 19 0
4 -8 -12 0
-3 13 -18 0
-1 8 17 0
2 -4 17 0
-10 -16 19 0
-5 8 -13 0
-2 3 5 0
-2 11 -18 0
10 15 17 0
9 12 -13 0
-11 -16 -17 0
6 7 19 0
8 -17 -18 0
4 11 20 0
2 3 14 0
-2 5 -6 0
-3 7 -15 0
-9 -15 -20 0
6 12 20 0
9 12 15 0
7 10 -17 0
-1 -2 -4 0
3 -8 10 0
-9 13 15 0
-4 -6 -15 0
4 -13 16 0
13 14 -15 0
-5 12 15 0
6 7 -11 0
7 8 -16 0
4 8 16 0
3 -11 -18 0
-2 -9 -12 0
-6 -11 13 0
2 -14 20 0
-13 14 -15 0
-4 7 -20 0
4 9 -10 0
6 -16 -18 0
-5 13 -19 0
5 15 -20 0
-1 -4 16 0
9 10 -12 0
-9 -13 -19 0
14 -17 20 0
1 -6 -15 0
-1 -16 -20 0
8 16 19 0
-7 9 -15 0
4 -6 -15 0
8 -12 20 0
2 6 10 0
-6 16 -17 0
-6 -15 18 0
-4 -5 14 0
-3 10 15 0
8 11 -16 0
-3 14 -16 0
7 8 -12 0
-7 19 -20 0
-15 -19 -20 0
1 -11 -17 0
-1 2 -15 0
-2 4 -16 0
-7 -14 -16 0
2 4 -20 0
-1 -15 20 0
1 13 16 0
-3 11 -20 0
-4 -9 11 0
-3 -6 9 0
-6 10 18 0
2 -10 -12 0
